g3 0 1 0	# problem clay0203hfsg
 90 132 1 0 24	# vars, constraints, objectives, ranges, eqns
 24 0	# nonlinear constraints, objectives
 0 0	# network constraints: nonlinear, linear
 18 0 0	# nonlinear vars in constraints, objectives, both
 0 0 0 1	# linear network variables; functions; arith, flags
 12 0 0 6 0	# discrete variables: binary, integer, nonlinear (b,c,o)
 360 6	# nonzeros in Jacobian, gradients
 4 3	# max name lengths: constraints, variables
 0 0 0 0 0	# common exprs: b,c,o,c1,o1
b
2 0
2 0
2 0
2 0
2 0
2 0
2 0
2 0
2 0
2 0
2 0
2 0
0 0 1
0 0 1
0 0 1
0 0 1
0 0 1
0 0 1
0 11.5 52.5
0 12.5 51.5
0 10.5 53.5
0 7 82
0 6.5 82.5
0 5.5 83.5
2 0
2 0
2 0
2 0
2 0
2 0
2 0
2 0
2 0
2 0
2 0
2 0
2 0
2 0
2 0
2 0
2 0
2 0
2 0
2 0
2 0
2 0
2 0
2 0
2 0
2 0
2 0
2 0
2 0
2 0
2 0
2 0
2 0
2 0
2 0
2 0
2 0
2 0
2 0
2 0
2 0
2 0
2 0
2 0
2 0
2 0
2 0
2 0
2 0
2 0
2 0
2 0
2 0
2 0
0 0 1
0 0 1
0 0 1
0 0 1
0 0 1
0 0 1
0 0 1
0 0 1
0 0 1
0 0 1
0 0 1
0 0 1
x6
18 11.5
19 12.5
20 10.5
21 7
22 6.5
23 5.5
r
1 0
1 0
1 0
1 0
1 0
1 0
1 0
1 0
1 0
1 0
1 0
1 0
1 0
1 0
1 0
1 0
1 0
1 0
1 0
1 0
1 0
1 0
1 0
1 0
2 0
2 0
2 0
2 0
2 0
2 0
2 0
2 0
2 0
2 0
2 0
2 0
4 0
4 0
4 0
4 0
4 0
4 0
4 0
4 0
4 0
4 0
4 0
4 0
1 0
1 0
1 0
1 0
1 0
1 0
1 0
1 0
1 0
1 0
1 0
1 0
1 0
1 0
1 0
1 0
1 0
1 0
1 0
1 0
1 0
1 0
1 0
1 0
1 0
1 0
1 0
1 0
1 0
1 0
1 0
1 0
1 0
1 0
1 0
1 0
1 0
1 0
1 0
1 0
1 0
1 0
1 0
1 0
1 0
1 0
1 0
1 0
1 0
1 0
1 0
1 0
1 0
1 0
1 0
1 0
1 0
1 0
1 0
1 0
4 1
4 1
4 1
4 0
4 0
4 0
4 0
4 0
4 0
1 0
1 0
1 0
1 0
1 0
1 0
1 0
1 0
1 0
1 0
1 0
1 0
4 1
4 1
4 1
C0
o54
4
o2
o54
4
o5
o3
v0
o0
n1e-3
o2
n.999
v12
n2
o16
o3
o2
n35
v0
o0
n1e-3
o2
n.999
v12
o5
o3
v6
o0
n1e-3
o2
n.999
v12
n2
o16
o3
o2
n14
v6
o0
n1e-3
o2
n.999
v12
o0
n1e-3
o2
n.999
v12
o2
n306.25
v12
o2
n49
v12
o2
n-36
v12
C1
o54
4
o2
o54
4
o5
o3
v1
o0
n1e-3
o2
n.999
v13
n2
o16
o3
o2
n37
v1
o0
n1e-3
o2
n.999
v13
o5
o3
v7
o0
n1e-3
o2
n.999
v13
n2
o16
o3
o2
n15
v7
o0
n1e-3
o2
n.999
v13
o0
n1e-3
o2
n.999
v13
o2
n342.25
v13
o2
n56.25
v13
o2
n-36
v13
C2
o54
4
o2
o54
4
o5
o3
v2
o0
n1e-3
o2
n.999
v14
n2
o16
o3
o2
n33
v2
o0
n1e-3
o2
n.999
v14
o5
o3
v8
o0
n1e-3
o2
n.999
v14
n2
o16
o3
o2
n17
v8
o0
n1e-3
o2
n.999
v14
o0
n1e-3
o2
n.999
v14
o2
n272.25
v14
o2
n72.25
v14
o2
n-36
v14
C3
o54
4
o2
o54
4
o5
o3
v3
o0
n1e-3
o2
n.999
v15
n2
o16
o3
o2
n105
v3
o0
n1e-3
o2
n.999
v15
o5
o3
v9
o0
n1e-3
o2
n.999
v15
n2
o16
o3
o2
n154
v9
o0
n1e-3
o2
n.999
v15
o0
n1e-3
o2
n.999
v15
o2
n2756.25
v15
o2
n5929
v15
o2
n-25
v15
C4
o54
4
o2
o54
4
o5
o3
v4
o0
n1e-3
o2
n.999
v16
n2
o16
o3
o2
n107
v4
o0
n1e-3
o2
n.999
v16
o5
o3
v10
o0
n1e-3
o2
n.999
v16
n2
o16
o3
o2
n155
v10
o0
n1e-3
o2
n.999
v16
o0
n1e-3
o2
n.999
v16
o2
n2862.25
v16
o2
n6006.25
v16
o2
n-25
v16
C5
o54
4
o2
o54
4
o5
o3
v5
o0
n1e-3
o2
n.999
v17
n2
o16
o3
o2
n103
v5
o0
n1e-3
o2
n.999
v17
o5
o3
v11
o0
n1e-3
o2
n.999
v17
n2
o16
o3
o2
n157
v11
o0
n1e-3
o2
n.999
v17
o0
n1e-3
o2
n.999
v17
o2
n2652.25
v17
o2
n6162.25
v17
o2
n-25
v17
C6
o54
4
o2
o54
4
o5
o3
v0
o0
n1e-3
o2
n.999
v12
n2
o16
o3
o2
n35
v0
o0
n1e-3
o2
n.999
v12
o5
o3
v6
o0
n1e-3
o2
n.999
v12
n2
o16
o3
o2
n26
v6
o0
n1e-3
o2
n.999
v12
o0
n1e-3
o2
n.999
v12
o2
n306.25
v12
o2
n169
v12
o2
n-36
v12
C7
o54
4
o2
o54
4
o5
o3
v1
o0
n1e-3
o2
n.999
v13
n2
o16
o3
o2
n37
v1
o0
n1e-3
o2
n.999
v13
o5
o3
v7
o0
n1e-3
o2
n.999
v13
n2
o16
o3
o2
n25
v7
o0
n1e-3
o2
n.999
v13
o0
n1e-3
o2
n.999
v13
o2
n342.25
v13
o2
n156.25
v13
o2
n-36
v13
C8
o54
4
o2
o54
4
o5
o3
v2
o0
n1e-3
o2
n.999
v14
n2
o16
o3
o2
n33
v2
o0
n1e-3
o2
n.999
v14
o5
o3
v8
o0
n1e-3
o2
n.999
v14
n2
o16
o3
o2
n23
v8
o0
n1e-3
o2
n.999
v14
o0
n1e-3
o2
n.999
v14
o2
n272.25
v14
o2
n132.25
v14
o2
n-36
v14
C9
o54
4
o2
o54
4
o5
o3
v3
o0
n1e-3
o2
n.999
v15
n2
o16
o3
o2
n105
v3
o0
n1e-3
o2
n.999
v15
o5
o3
v9
o0
n1e-3
o2
n.999
v15
n2
o16
o3
o2
n166
v9
o0
n1e-3
o2
n.999
v15
o0
n1e-3
o2
n.999
v15
o2
n2756.25
v15
o2
n6889
v15
o2
n-25
v15
C10
o54
4
o2
o54
4
o5
o3
v4
o0
n1e-3
o2
n.999
v16
n2
o16
o3
o2
n107
v4
o0
n1e-3
o2
n.999
v16
o5
o3
v10
o0
n1e-3
o2
n.999
v16
n2
o16
o3
o2
n165
v10
o0
n1e-3
o2
n.999
v16
o0
n1e-3
o2
n.999
v16
o2
n2862.25
v16
o2
n6806.25
v16
o2
n-25
v16
C11
o54
4
o2
o54
4
o5
o3
v5
o0
n1e-3
o2
n.999
v17
n2
o16
o3
o2
n103
v5
o0
n1e-3
o2
n.999
v17
o5
o3
v11
o0
n1e-3
o2
n.999
v17
n2
o16
o3
o2
n163
v11
o0
n1e-3
o2
n.999
v17
o0
n1e-3
o2
n.999
v17
o2
n2652.25
v17
o2
n6642.25
v17
o2
n-25
v17
C12
o54
4
o2
o54
4
o5
o3
v0
o0
n1e-3
o2
n.999
v12
n2
o16
o3
o2
n25
v0
o0
n1e-3
o2
n.999
v12
o5
o3
v6
o0
n1e-3
o2
n.999
v12
n2
o16
o3
o2
n14
v6
o0
n1e-3
o2
n.999
v12
o0
n1e-3
o2
n.999
v12
o2
n156.25
v12
o2
n49
v12
o2
n-36
v12
C13
o54
4
o2
o54
4
o5
o3
v1
o0
n1e-3
o2
n.999
v13
n2
o16
o3
o2
n23
v1
o0
n1e-3
o2
n.999
v13
o5
o3
v7
o0
n1e-3
o2
n.999
v13
n2
o16
o3
o2
n15
v7
o0
n1e-3
o2
n.999
v13
o0
n1e-3
o2
n.999
v13
o2
n132.25
v13
o2
n56.25
v13
o2
n-36
v13
C14
o54
4
o2
o54
4
o5
o3
v2
o0
n1e-3
o2
n.999
v14
n2
o16
o3
o2
n27
v2
o0
n1e-3
o2
n.999
v14
o5
o3
v8
o0
n1e-3
o2
n.999
v14
n2
o16
o3
o2
n17
v8
o0
n1e-3
o2
n.999
v14
o0
n1e-3
o2
n.999
v14
o2
n182.25
v14
o2
n72.25
v14
o2
n-36
v14
C15
o54
4
o2
o54
4
o5
o3
v3
o0
n1e-3
o2
n.999
v15
n2
o16
o3
o2
n95
v3
o0
n1e-3
o2
n.999
v15
o5
o3
v9
o0
n1e-3
o2
n.999
v15
n2
o16
o3
o2
n154
v9
o0
n1e-3
o2
n.999
v15
o0
n1e-3
o2
n.999
v15
o2
n2256.25
v15
o2
n5929
v15
o2
n-25
v15
C16
o54
4
o2
o54
4
o5
o3
v4
o0
n1e-3
o2
n.999
v16
n2
o16
o3
o2
n93
v4
o0
n1e-3
o2
n.999
v16
o5
o3
v10
o0
n1e-3
o2
n.999
v16
n2
o16
o3
o2
n155
v10
o0
n1e-3
o2
n.999
v16
o0
n1e-3
o2
n.999
v16
o2
n2162.25
v16
o2
n6006.25
v16
o2
n-25
v16
C17
o54
4
o2
o54
4
o5
o3
v5
o0
n1e-3
o2
n.999
v17
n2
o16
o3
o2
n97
v5
o0
n1e-3
o2
n.999
v17
o5
o3
v11
o0
n1e-3
o2
n.999
v17
n2
o16
o3
o2
n157
v11
o0
n1e-3
o2
n.999
v17
o0
n1e-3
o2
n.999
v17
o2
n2352.25
v17
o2
n6162.25
v17
o2
n-25
v17
C18
o54
4
o2
o54
4
o5
o3
v0
o0
n1e-3
o2
n.999
v12
n2
o16
o3
o2
n25
v0
o0
n1e-3
o2
n.999
v12
o5
o3
v6
o0
n1e-3
o2
n.999
v12
n2
o16
o3
o2
n26
v6
o0
n1e-3
o2
n.999
v12
o0
n1e-3
o2
n.999
v12
o2
n156.25
v12
o2
n169
v12
o2
n-36
v12
C19
o54
4
o2
o54
4
o5
o3
v1
o0
n1e-3
o2
n.999
v13
n2
o16
o3
o2
n23
v1
o0
n1e-3
o2
n.999
v13
o5
o3
v7
o0
n1e-3
o2
n.999
v13
n2
o16
o3
o2
n25
v7
o0
n1e-3
o2
n.999
v13
o0
n1e-3
o2
n.999
v13
o2
n132.25
v13
o2
n156.25
v13
o2
n-36
v13
C20
o54
4
o2
o54
4
o5
o3
v2
o0
n1e-3
o2
n.999
v14
n2
o16
o3
o2
n27
v2
o0
n1e-3
o2
n.999
v14
o5
o3
v8
o0
n1e-3
o2
n.999
v14
n2
o16
o3
o2
n23
v8
o0
n1e-3
o2
n.999
v14
o0
n1e-3
o2
n.999
v14
o2
n182.25
v14
o2
n132.25
v14
o2
n-36
v14
C21
o54
4
o2
o54
4
o5
o3
v3
o0
n1e-3
o2
n.999
v15
n2
o16
o3
o2
n95
v3
o0
n1e-3
o2
n.999
v15
o5
o3
v9
o0
n1e-3
o2
n.999
v15
n2
o16
o3
o2
n166
v9
o0
n1e-3
o2
n.999
v15
o0
n1e-3
o2
n.999
v15
o2
n2256.25
v15
o2
n6889
v15
o2
n-25
v15
C22
o54
4
o2
o54
4
o5
o3
v4
o0
n1e-3
o2
n.999
v16
n2
o16
o3
o2
n93
v4
o0
n1e-3
o2
n.999
v16
o5
o3
v10
o0
n1e-3
o2
n.999
v16
n2
o16
o3
o2
n165
v10
o0
n1e-3
o2
n.999
v16
o0
n1e-3
o2
n.999
v16
o2
n2162.25
v16
o2
n6806.25
v16
o2
n-25
v16
C23
o54
4
o2
o54
4
o5
o3
v5
o0
n1e-3
o2
n.999
v17
n2
o16
o3
o2
n97
v5
o0
n1e-3
o2
n.999
v17
o5
o3
v11
o0
n1e-3
o2
n.999
v17
n2
o16
o3
o2
n163
v11
o0
n1e-3
o2
n.999
v17
o0
n1e-3
o2
n.999
v17
o2
n2352.25
v17
o2
n6642.25
v17
o2
n-25
v17
C24
n0
C25
n0
C26
n0
C27
n0
C28
n0
C29
n0
C30
n0
C31
n0
C32
n0
C33
n0
C34
n0
C35
n0
C36
n0
C37
n0
C38
n0
C39
n0
C40
n0
C41
n0
C42
n0
C43
n0
C44
n0
C45
n0
C46
n0
C47
n0
C48
n0
C49
n0
C50
n0
C51
n0
C52
n0
C53
n0
C54
n0
C55
n0
C56
n0
C57
n0
C58
n0
C59
n0
C60
n0
C61
n0
C62
n0
C63
n0
C64
n0
C65
n0
C66
n0
C67
n0
C68
n0
C69
n0
C70
n0
C71
n0
C72
n0
C73
n0
C74
n0
C75
n0
C76
n0
C77
n0
C78
n0
C79
n0
C80
n0
C81
n0
C82
n0
C83
n0
C84
n0
C85
n0
C86
n0
C87
n0
C88
n0
C89
n0
C90
n0
C91
n0
C92
n0
C93
n0
C94
n0
C95
n0
C96
n0
C97
n0
C98
n0
C99
n0
C100
n0
C101
n0
C102
n0
C103
n0
C104
n0
C105
n0
C106
n0
C107
n0
C108
n0
C109
n0
C110
n0
C111
n0
C112
n0
C113
n0
C114
n0
C115
n0
C116
n0
C117
n0
C118
n0
C119
n0
C120
n0
C121
n0
C122
n0
C123
n0
C124
n0
C125
n0
C126
n0
C127
n0
C128
n0
C129
n0
C130
n0
C131
n0
O0 0
n0
k89
6
12
18
24
30
36
42
48
54
60
66
72
79
86
93
100
107
114
121
128
135
142
149
156
159
162
165
168
170
172
174
176
179
182
185
188
190
192
194
196
199
202
205
208
210
212
214
216
218
220
222
224
227
230
233
236
238
240
242
244
247
250
253
256
258
260
262
264
267
270
273
276
278
280
282
284
286
288
294
300
306
312
318
324
330
336
342
348
354
J0 3
0 0
6 0
12 0
J1 3
1 0
7 0
13 0
J2 3
2 0
8 0
14 0
J3 3
3 0
9 0
15 0
J4 3
4 0
10 0
16 0
J5 3
5 0
11 0
17 0
J6 3
0 0
6 0
12 0
J7 3
1 0
7 0
13 0
J8 3
2 0
8 0
14 0
J9 3
3 0
9 0
15 0
J10 3
4 0
10 0
16 0
J11 3
5 0
11 0
17 0
J12 3
0 0
6 0
12 0
J13 3
1 0
7 0
13 0
J14 3
2 0
8 0
14 0
J15 3
3 0
9 0
15 0
J16 3
4 0
10 0
16 0
J17 3
5 0
11 0
17 0
J18 3
0 0
6 0
12 0
J19 3
1 0
7 0
13 0
J20 3
2 0
8 0
14 0
J21 3
3 0
9 0
15 0
J22 3
4 0
10 0
16 0
J23 3
5 0
11 0
17 0
J24 3
18 -1
19 1
72 1
J25 3
18 -1
20 1
73 1
J26 3
19 -1
20 1
74 1
J27 3
18 1
19 -1
72 1
J28 3
18 1
20 -1
73 1
J29 3
19 1
20 -1
74 1
J30 3
21 -1
22 1
75 1
J31 3
21 -1
23 1
76 1
J32 3
22 -1
23 1
77 1
J33 3
21 1
22 -1
75 1
J34 3
21 1
23 -1
76 1
J35 3
22 1
23 -1
77 1
J36 5
18 1
24 -1
26 -1
28 -1
30 -1
J37 5
18 1
25 -1
27 -1
29 -1
31 -1
J38 5
19 1
32 -1
34 -1
36 -1
38 -1
J39 5
19 1
33 -1
35 -1
37 -1
39 -1
J40 5
20 1
40 -1
42 -1
44 -1
46 -1
J41 5
20 1
41 -1
43 -1
45 -1
47 -1
J42 5
21 1
48 -1
50 -1
52 -1
54 -1
J43 5
21 1
49 -1
51 -1
53 -1
55 -1
J44 5
22 1
56 -1
58 -1
60 -1
62 -1
J45 5
22 1
57 -1
59 -1
61 -1
63 -1
J46 5
23 1
64 -1
66 -1
68 -1
70 -1
J47 5
23 1
65 -1
67 -1
69 -1
71 -1
J48 2
24 1
78 -52.5
J49 2
25 1
79 -52.5
J50 2
26 1
81 -52.5
J51 2
27 1
82 -52.5
J52 2
28 1
84 -52.5
J53 2
29 1
85 -52.5
J54 2
30 1
87 -52.5
J55 2
31 1
88 -52.5
J56 2
32 1
78 -52.5
J57 2
33 1
80 -51.5
J58 2
34 1
81 -52.5
J59 2
35 1
83 -51.5
J60 2
36 1
84 -52.5
J61 2
37 1
86 -51.5
J62 2
38 1
87 -52.5
J63 2
39 1
89 -51.5
J64 2
40 1
79 -52.5
J65 2
41 1
80 -51.5
J66 2
42 1
82 -52.5
J67 2
43 1
83 -51.5
J68 2
44 1
85 -52.5
J69 2
45 1
86 -51.5
J70 2
46 1
88 -52.5
J71 2
47 1
89 -51.5
J72 2
48 1
78 -82
J73 2
49 1
79 -82
J74 2
50 1
81 -82
J75 2
51 1
82 -82
J76 2
52 1
84 -82
J77 2
53 1
85 -82
J78 2
54 1
87 -82
J79 2
55 1
88 -82
J80 2
56 1
78 -82
J81 2
57 1
80 -82.5
J82 2
58 1
81 -82
J83 2
59 1
83 -82.5
J84 2
60 1
84 -82
J85 2
61 1
86 -82.5
J86 2
62 1
87 -82
J87 2
63 1
89 -82.5
J88 2
64 1
79 -82
J89 2
65 1
80 -82.5
J90 2
66 1
82 -82
J91 2
67 1
83 -82.5
J92 2
68 1
85 -82
J93 2
69 1
86 -82.5
J94 2
70 1
88 -82
J95 2
71 1
89 -82.5
J96 3
24 1
32 -1
78 6
J97 3
25 1
40 -1
79 4
J98 3
33 1
41 -1
80 5
J99 3
26 -1
34 1
81 6
J100 3
27 -1
42 1
82 4
J101 3
35 -1
43 1
83 5
J102 3
52 1
60 -1
84 5.5
J103 3
53 1
68 -1
85 4.5
J104 3
61 1
69 -1
86 4
J105 3
54 -1
62 1
87 5.5
J106 3
55 -1
70 1
88 4.5
J107 3
63 -1
71 1
89 4
J108 4
78 1
81 1
84 1
87 1
J109 4
79 1
82 1
85 1
88 1
J110 4
80 1
83 1
86 1
89 1
J111 3
0 -1
3 -1
18 1
J112 3
1 -1
4 -1
19 1
J113 3
2 -1
5 -1
20 1
J114 3
6 -1
9 -1
21 1
J115 3
7 -1
10 -1
22 1
J116 3
8 -1
11 -1
23 1
J117 2
0 1
12 -18.5
J118 2
1 1
13 -17.5
J119 2
2 1
14 -19.5
J120 2
3 1
15 -52.5
J121 2
4 1
16 -51.5
J122 2
5 1
17 -53.5
J123 2
6 1
12 -13
J124 2
7 1
13 -13.5
J125 2
8 1
14 -14.5
J126 2
9 1
15 -82
J127 2
10 1
16 -82.5
J128 2
11 1
17 -83.5
J129 2
12 1
15 1
J130 2
13 1
16 1
J131 2
14 1
17 1
G0 6
72 300
73 2.4e2
74 100
75 300
76 2.4e2
77 100
